97
15
0 15 16 17 18 19 20 22 24 25 29 30 31 32 33 35 38 39 41 43 46 51 53 54 56 57 59 61 65 66 67 71 72 73 76 78 80 82 83 84 85 87 90 91 92 93 95
1 15 16 17 19 21 22 24 25 28 29 30 32 34 35 38 39 42 46 47 48 49 50 51 52 53 54 59 60 61 67 70 73 74 76 82 86 87 89 90 91 92 93 95
2 15 17 18 19 22 24 25 26 27 28 29 30 31 32 34 35 39 40 41 43 47 48 49 52 54 57 59 60 61 65 66 67 68 70 71 72 73 75 78 79 80 82 86 87 89 93 95
3 15 16 17 18 20 21 22 24 30 32 35 36 38 41 43 48 49 50 51 52 53 54 56 59 60 61 63 65 66 67 70 71 73 74 76 78 80 87 91 93 95
4 16 17 18 21 22 24 25 26 28 30 31 32 33 37 38 40 43 46 48 49 51 52 53 59 61 63 66 67 68 71 72 77 79 80 81 82 84 85 86 87 90 91 92 95
5 15 16 18 19 20 29 30 32 33 34 35 38 41 43 48 51 52 53 55 58 59 61 62 65 68 71 72 73 76 77 85 86 87 90 93 95
6 18 19 20 21 22 25 30 31 34 35 36 38 40 41 45 46 48 53 55 60 66 67 68 69 71 72 73 78 79 80 81 82 87 89 91 92 93
7 16 17 18 20 21 23 24 26 29 33 34 40 43 44 46 47 48 50 53 54 59 60 65 67 68 69 71 74 75 78 82 86 87 88 92
8 16 17 21 24 28 29 32 33 38 44 46 47 48 50 55 58 60 63 68 70 71 72 73 76 77 78 81 84 90 91
9 20 22 24 25 26 27 28 29 30 31 34 35 41 45 47 52 54 56 60 61 62 63 70 72 74 76 77 81 82 91 92 96
10 21 26 30 31 32 39 40 43 53 56 59 66 69 70 72 78 79 86 87 88 95
11 15 16 18 21 22 41 46 49 55 57 64 67 77 81 87 89 90
12 19 20 21 28 30 39 40 41 43 51 56 68 73 77
13 23 29 31 32 35 36 45 48 52 54 59 61 71 75 90 94 95
14 15 29 32 36 37 69 79 84 92
